c Lingeling SAT Solver
c 
c Version azf 92032848c138b2f33629ad24394d60a3787a1046
c 
c Copyright (C) 2010-2014 Armin Biere JKU Linz Austria.
c All rights reserved.
c 
c released Don Mai 22 22:08:00 CEST 2014
c compiled Mon Oct  6 05:55:43 PDT 2014
c 
c gcc (Ubuntu 4.8.2-19ubuntu1) 4.8.2
c -Wall -O3 -DNDBLSCR -DNLGLOG -DNDEBUG -DNCHKSOL -DNLGLPICOSAT -DNLGLDRUPLIG
c -DNLGLYALSAT
c Linux ubuntu 3.13.0-32-generic x86_64
c 
c reading input file benchmark-sat/translations/gc-anna-10.cnf
c no embedded options
c found 'p cnf 1380 16208' header
c read 1380 variables, 16208 clauses, 33520 literals in 0.00 seconds
c 
c  seconds         irredundant          redundant clauses agility   height
c          variables clauses conflicts large ternary binary    glue         MB
c 
c S    0.0    1380    16208         0       0      0     0   0  0.0   0.0    0
c S    1.0     603     3666     26924    3677      0  2376   9 14.4  19.7    1
c S    2.0     603     3666     61221    3889      7  2377   8 15.5  20.9    2
c S    5.0     603     3666    159306    3290      7  2377  11 15.8  21.4    3
c S   10.0     602     3666    302238    9182     15  2391   8 15.1  20.3    5
c S   20.0     602     3624    562857   28696      7  2369   8 17.0  23.5   11
c S   30.1     602     3584    889286   11932      7  2387  10 17.5  24.6    6
c S   40.0     602     3584   1127204   19060      7  2387  10 17.0  25.2    8
c S   50.0     600     3563   1388479   26811     16  2383  10 16.5  24.1   12
c S   60.0     600     3563   1592628   36736     16  2383  10 16.7  24.1   12
c 
c  seconds         irredundant          redundant clauses agility   height
c          variables clauses conflicts large ternary binary    glue         MB
c 
s UNSATISFIABLE
c
c    1.635   1% simplifying
c  115.773  99% search
c ==================================
c  117.409 100% all
c 
c 2782785 decisions, 23701.7 decisions/sec
c 2561776 conflicts, 21819.3 conflicts/sec
c 87737567 propagations, 0.7 megaprops/sec
c 117.4 seconds, 30.8 MB
